Version identifier: 22.1.0.0 | 2022-03-09 | 1a383f8ce
CPXPARAM_Read_DataCheck                          1
CPXPARAM_Threads                                 1
CPXPARAM_TimeLimit                               3600
Tried aggregator 2 times.
MIP Presolve eliminated 565 rows and 114 columns.
MIP Presolve modified 4038 coefficients.
Aggregator did 55 substitutions.
Reduced MIP has 991 rows, 191 columns, and 5872 nonzeros.
Reduced MIP has 141 binaries, 0 generals, 0 SOSs, and 0 indicators.
Presolve time = 0.01 sec. (10.39 ticks)
Probing fixed 6 vars, tightened 2 bounds.
Probing time = 0.00 sec. (3.13 ticks)
Tried aggregator 1 time.
Detecting symmetries...
MIP Presolve eliminated 13 rows and 6 columns.
MIP Presolve modified 35 coefficients.
Reduced MIP has 978 rows, 185 columns, and 5743 nonzeros.
Reduced MIP has 135 binaries, 0 generals, 0 SOSs, and 0 indicators.
Presolve time = 0.01 sec. (3.65 ticks)
Probing time = 0.00 sec. (2.93 ticks)
Clique table members: 711.
MIP emphasis: balance optimality and feasibility.
MIP search method: dynamic search.
Parallel mode: none, using 1 thread.
Root relaxation solution time = 0.00 sec. (3.43 ticks)

        Nodes                                         Cuts/
   Node  Left     Objective  IInf  Best Integer    Best Bound    ItCnt     Gap

      0     0       12.4200    35                     12.4200       79         
      0     0       12.4200    15                    Cuts: 12       92         
      0     0       12.4200    30                    Cuts: 77      184         
      0     0       12.4200    11                 ZeroHalf: 1      185         
      0     0       12.4200    18                    Cuts: 49      230         
*     0+    0                           12.4200       12.4200             0.00%
      0     0        cutoff             12.4200       12.4200      230    0.00%
Elapsed time = 0.17 sec. (160.11 ticks, tree = 0.01 MB, solutions = 1)

GUB cover cuts applied:  4
Implied bound cuts applied:  2
Mixed integer rounding cuts applied:  6
Zero-half cuts applied:  5
Gomory fractional cuts applied:  1

Root node processing (before b&c):
  Real time             =    0.17 sec. (160.15 ticks)
Sequential b&c:
  Real time             =    0.00 sec. (0.00 ticks)
                          ------------
Total (root+branch&cut) =    0.17 sec. (160.15 ticks)
